Normalized Data/p01_00_tsplib0_normalized_splitx10_0.vrp
NAME:p01_00_tsplib0_NORMALIZED_splitx10_
BEST_KNOWN: 0
COMMENT: 0
DIMENSION: 144
CAPACITY: 1000
EDGE_WEIGHT_FORMAT: FUNCTION
EDGE_WEIGHT_TYPE: EXACT_2D
NODE_COORD_SECTION
1 0.00000 0.00000
2 7 12
3 7 12
4 7 12
5 7 12
6 19 9
7 19 9
8 19 9
9 19 9
10 19 9
11 22 24
12 -10 -14
13 10 -10
14 10 -10
15 10 -10
16 10 -10
17 -9 7
18 -9 7
19 -9 7
20 -9 7
21 -9 7
22 -13 23
23 -13 23
24 1 22
25 1 22
26 1 22
27 1 22
28 1 22
29 22 -7
30 22 -7
31 21 -19
32 21 -19
33 21 -19
34 12 1
35 12 1
36 1 -8
37 1 -8
38 1 -8
39 1 -8
40 1 -8
41 -25 -15
42 -25 -15
43 -25 -15
44 -25 -15
45 -25 -15
46 -18 2
47 -18 2
48 -18 2
49 -18 2
50 6 -24
51 6 -24
52 22 1
53 22 1
54 22 1
55 22 1
56 22 1
57 -3 -17
58 -13 -7
59 -13 -7
60 -17 -27
61 27 18
62 27 18
63 27 18
64 27 18
65 32 2
66 12 17
67 -14 17
68 -22 12
69 -22 12
70 -23 -2
71 -23 -2
72 -23 -2
73 -23 -2
74 -3 28
75 -3 28
76 -3 28
77 -3 28
78 0 8
79 0 8
80 0 8
81 0 8
82 0 8
83 13 27
84 13 27
85 13 27
86 13 27
87 28 8
88 28 8
89 28 8
90 28 -13
91 28 -13
92 7 29
93 7 29
94 8 6
95 8 6
96 8 6
97 16 -30
98 16 -30
99 16 -30
100 16 -30
101 16 -30
102 31 -7
103 31 -7
104 31 -7
105 32 23
106 33 29
107 33 29
108 33 29
109 2 -18
110 15 -5
111 15 -5
112 15 -5
113 15 -5
114 15 -5
115 29 -25
116 29 -25
117 29 -25
118 29 -25
119 -25 -34
120 -25 -34
121 -25 -34
122 -25 -34
123 -20 -23
124 -20 -23
125 -20 -23
126 -9 -30
127 -9 -30
128 -9 -30
129 -9 -30
130 -25 24
131 -25 24
132 0 -25
133 9 -30
134 9 -30
135 2 -1
136 2 -1
137 2 -1
138 -5 -8
139 -5 -8
140 -5 15
141 18 -12
142 18 -12
143 26 -3
144 26 -3
DEMAND_SECTION
1 0
2 10
3 10
4 10
5 10
6 100
7 50
8 10
9 10
10 10
11 100
12 50
13 100
14 10
15 10
16 10
17 50
18 10
19 10
20 10
21 10
22 100
23 10
24 100
25 10
26 10
27 10
28 10
29 50
30 10
31 10
32 10
33 10
34 100
35 10
36 100
37 50
38 10
39 10
40 10
41 100
42 10
43 10
44 10
45 10
46 100
47 10
48 10
49 10
50 50
51 10
52 50
53 10
54 10
55 10
56 10
57 10
58 200
59 50
60 50
61 100
62 50
63 10
64 10
65 50
66 50
67 100
68 50
69 10
70 100
71 50
72 10
73 10
74 10
75 10
76 10
77 10
78 50
79 10
80 10
81 10
82 10
83 50
84 10
85 10
86 10
87 10
88 10
89 10
90 100
91 10
92 50
93 10
94 50
95 10
96 10
97 100
98 10
99 10
100 10
101 10
102 100
103 50
104 10
105 100
106 10
107 10
108 10
109 50
110 50
111 10
112 10
113 10
114 10
115 50
116 10
117 10
118 10
119 10
120 10
121 10
122 10
123 100
124 50
125 10
126 50
127 10
128 10
129 10
130 50
131 10
132 100
133 50
134 10
135 10
136 10
137 10
138 100
139 50
140 100
141 100
142 10
143 50
144 10
DEPOT_SECTION
1
-1
EOF