Normalized Data/p01_00_tsplib0_normalized_splitx10_0.sol
143 -1 3 4 2 65 61 62 60 63 104 106 105 107 10 83 82 84 85 91 92 74 76 73 75 23 26 25 27 24 139 79 80 78 81 77 -16 20 17 19 18 66 21 22 130 129 68 67 46 47 45 48 72 71 69 70 58 57 -33 34 54 55 53 51 52 142 143 29 28 89 90 102 103 101 64 88 86 87 8 7 5 9 6 95 93 94 -38 37 39 35 36 108 49 50 132 133 97 99 100 98 96 114 116 115 117 30 32 31 141 140 110 109 111 113 112 14 13 15 12 134 135 136 -56 131 127 125 128 126 59 121 120 119 118 124 122 123 40 44 43 42 41 11 138 137 0 





OBJ=
520.206
BEST_KNOWN=
0.000